5
1 270 445
2 322 396
3 195 182
4 368 474
5 452 284
6 155 364
7 359 484
8 491 199
9 476 422
10 29 191
11 38 70
12 93 458
13 454 278
14 451 104
15 255 260
16 289 258
17 422 349
18 313 88
19 141 296
20 266 200
21 480 78
22 244 483
23 296 335
24 238 279
25 57 393
26 355 123
27 426 103
28 163 165
29 498 330
30 499 118
31 212 125
32 15 450
33 445 43
34 188 470
35 438 318
36 357 299
37 382 134
38 68 116
39 279 389
40 133 395
41 460 269
42 386 272
43 128 142
44 285 76
45 239 254
46 100 127
47 5 275
48 340 380
49 293 327
50 204 135